100
749 802 1058 297 166 925 434 473 915 284 1010 592 172 1018 673 179 939 875 841 758 1093 113 1075 743 353 713 438 751 805 625 199 492 403 850 1032 876 631 271 808 366 1098 273 1069 116 880 447 675 516 408 538 916 453 461 882 278 458 617 618 270 865 590 192 439 158 444 215 355 656 790 400 564 614 686 1007 317 874 655 995 786 104 158 898 397 715 198 663 511 561 104 996 944 843 721 327 292 938 430 484 981 445 
649 702 958 197 66 825 334 373 815 184 910 492 72 918 573 79 839 775 741 658 993 13 975 643 253 613 338 651 705 525 99 392 303 750 932 776 531 171 708 266 998 173 969 16 780 347 575 416 308 438 816 353 361 782 178 358 517 518 170 765 490 92 339 58 344 115 255 556 690 300 464 514 586 907 217 774 555 895 686 4 58 798 297 615 98 563 411 461 4 896 844 743 621 227 192 838 330 384 881 345 
29743
